(set-info :source  loris-7.ddns.comp.nus.edu.sg/~project/hip/) 
;Variables declarations
(declare-fun n_4566 () Int)
(declare-fun height_4545 () Int)
(declare-fun n () Int)
(declare-fun height1_4549 () Int)
(declare-fun height2_4552 () Int)
(declare-fun q_4550 () Int)
(declare-fun m () Int)
(declare-fun size2_4551 () Int)
(declare-fun size1_4548 () Int)
(declare-fun m_4565 () Int)
(declare-fun v_node_175_2494_primed () Int)
(declare-fun flted_161_4579 () Int)
(declare-fun Anon_4580 () Int)
(declare-fun v_node_173_4585 () Int)
;Relations declarations
;Axioms assertions
;Antecedent
(assert (<= 0 n_4566))
(assert (<= 0 height1_4549))
(assert (= n_4566 height1_4549))
(assert (= height_4545 n))
(assert (<= height2_4552 (+ 1 height1_4549)))
(assert (<= height1_4549 (+ 1 height2_4552)))
(assert (exists ((max_4592 Int)) (and (= n (+ 1 max_4592)) (or (and (= max_4592 height1_4549) (>= height1_4549 height2_4552)) (and (= max_4592 height2_4552) (< height1_4549 height2_4552))))))
(assert (or (and (and (< q_4550 1) (= size2_4551 0)) (= height2_4552 0)) (and (and (<= 1 height2_4552) (<= 1 size2_4551)) (> q_4550 0))))
(assert (= m (+ (+ size2_4551 1) size1_4548)))
(assert (<= 0 m_4565))
(assert (<= 0 size1_4548))
(assert (= m_4565 size1_4548))
(assert (= flted_161_4579 (+ 1 m_4565)))
(assert (= v_node_175_2494_primed v_node_173_4585))
(assert (or (and (and (< v_node_173_4585 1) (= flted_161_4579 0)) (= Anon_4580 0)) (and (and (<= 1 Anon_4580) (<= 1 flted_161_4579)) (> v_node_173_4585 0))))
;Negation of Consequence
(assert (not (or (= flted_161_4579 0) (or (= Anon_4580 0) (< v_node_173_4585 1)))))
(check-sat)